33D32945 STP File, STP Format Version 1.0

SECTION Result
Length 5
Time 0,005333
Algorithm KMB
END

SECTION Comment
Name "Prosty graf 1b"
END

SECTION Graph
Nodes 5
Edges 6
E 1 2 3
E 2 3 7
E 1 5 2
E 2 4 4
E 3 4 1
E 4 5 2
END

SECTION Terminals
Terminals 3
T 1
T 3
T 4
END

SECTION Solution
S 1 5 2
S 4 5 2
S 3 4 1
END

EOF
